Version identifier: 22.1.0.0 | 2022-03-09 | 1a383f8ce
CPXPARAM_Read_DataCheck                          1
CPXPARAM_Threads                                 1
CPXPARAM_TimeLimit                               3600
Tried aggregator 2 times.
MIP Presolve eliminated 2048 rows and 115 columns.
MIP Presolve modified 30709 coefficients.
Aggregator did 140 substitutions.
Reduced MIP has 7573 rows, 725 columns, and 54990 nonzeros.
Reduced MIP has 520 binaries, 0 generals, 0 SOSs, and 0 indicators.
Presolve time = 0.14 sec. (105.02 ticks)
Found incumbent of value 202.389753 after 0.21 sec. (139.95 ticks)
Probing fixed 10 vars, tightened 39 bounds.
Probing time = 0.05 sec. (41.87 ticks)
Tried aggregator 1 time.
Detecting symmetries...
MIP Presolve eliminated 50 rows and 10 columns.
MIP Presolve modified 898 coefficients.
Reduced MIP has 7523 rows, 715 columns, and 54487 nonzeros.
Reduced MIP has 510 binaries, 0 generals, 0 SOSs, and 0 indicators.
Presolve time = 0.06 sec. (29.11 ticks)
Probing time = 0.01 sec. (6.29 ticks)
Clique table members: 3981.
MIP emphasis: balance optimality and feasibility.
MIP search method: dynamic search.
Parallel mode: none, using 1 thread.
Root relaxation solution time = 0.06 sec. (36.01 ticks)

        Nodes                                         Cuts/
   Node  Left     Objective  IInf  Best Integer    Best Bound    ItCnt     Gap

*     0+    0                          202.3898      157.8952            21.98%
      0     0      157.8952   122      202.3898      157.8952      366   21.98%
      0     0      157.8952    67      202.3898     Cuts: 848      777   21.98%
      0     0      157.8952    47      202.3898     Cuts: 590     1319   21.98%
      0     0      157.8961    43      202.3898     Cuts: 295     1893   21.98%
*     0+    0                          193.1272      157.8961            18.24%
      0     0  -1.00000e+75     0      193.1272      157.8961     1893   18.24%
      0     0      157.8969    78      193.1272     Cuts: 403     2066   18.24%
      0     0      157.8984    68      193.1272     Cuts: 744     2184   18.24%
Detecting symmetries...
      0     0      157.8995    75      193.1272     Cuts: 910     2361   18.24%
*     0+    0                          160.0376      157.8995             1.34%
*     0+    0                          159.6676      157.8995             1.11%
      0     0  -1.00000e+75     0      159.6676      157.8995     2361    1.11%
Detecting symmetries...

Repeating presolve.
Tried aggregator 1 time.
MIP Presolve eliminated 3882 rows and 308 columns.
MIP Presolve modified 6205 coefficients.
Reduced MIP has 3641 rows, 407 columns, and 19592 nonzeros.
Reduced MIP has 254 binaries, 0 generals, 0 SOSs, and 0 indicators.
Presolve time = 0.03 sec. (25.87 ticks)
Probing fixed 14 vars, tightened 116 bounds.
Probing time = 0.02 sec. (15.43 ticks)
Tried aggregator 1 time.
MIP Presolve eliminated 77 rows and 14 columns.
MIP Presolve modified 1840 coefficients.
Reduced MIP has 3564 rows, 393 columns, and 19123 nonzeros.
Reduced MIP has 240 binaries, 0 generals, 0 SOSs, and 0 indicators.
Presolve time = 0.01 sec. (10.79 ticks)
Probing time = 0.01 sec. (5.28 ticks)
Tried aggregator 1 time.
Detecting symmetries...
MIP Presolve modified 4 coefficients.
Reduced MIP has 3564 rows, 393 columns, and 19123 nonzeros.
Reduced MIP has 240 binaries, 0 generals, 0 SOSs, and 0 indicators.
Presolve time = 0.01 sec. (8.43 ticks)
Represolve time = 0.12 sec. (78.53 ticks)
Probing time = 0.01 sec. (5.28 ticks)
Clique table members: 2466.
MIP emphasis: balance optimality and feasibility.
MIP search method: dynamic search.
Parallel mode: none, using 1 thread.
Root relaxation solution time = 0.07 sec. (35.83 ticks)

        Nodes                                         Cuts/
   Node  Left     Objective  IInf  Best Integer    Best Bound    ItCnt     Gap

*     0+    0                          159.6676      157.8995             1.11%
      0     0      157.8995    55      159.6676      157.8995     2848    1.11%
      0     0      157.9002    61      159.6676     Cuts: 333     2993    1.11%
      0     0      157.9007    59      159.6676     Cuts: 162     3101    1.11%
      0     0      157.9018    62      159.6676     Cuts: 220     3182    1.11%
Detecting symmetries...
      0     2      157.9018    54      159.6676      157.9059     3182    1.10%
Elapsed time = 3.07 sec. (2309.95 ticks, tree = 0.01 MB, solutions = 4)
     10    10      158.1610    20      159.6676      157.9077     4767    1.10%
     42    36      159.1369    27      159.6676      157.9077     7235    1.10%
     97    83      157.9645    38      159.6676      157.9085     9464    1.10%
*   100+   73                          159.1519      157.9085             0.78%
    126    89      157.9289    32      159.1519      157.9114    11871    0.78%
*   140+   89                          158.9237      157.9114             0.64%
    170   107      158.0956    29      158.9237      157.9114    13795    0.64%
    190   115      158.1528     9      158.9237      157.9114    16139    0.64%
    240   137      158.4089    37      158.9237      157.9114    17911    0.64%
    296   153      158.1293    46      158.9237      157.9258    20610    0.63%
    341   173      158.0347    17      158.9237      157.9289    23290    0.63%
    499   243      158.0193    20      158.9237      158.0172    32679    0.57%
Elapsed time = 6.31 sec. (5528.92 ticks, tree = 0.64 MB, solutions = 6)
    648   303        cutoff            158.9237      158.0800    41551    0.53%
    793   356      158.3607    19      158.9237      158.1214    50843    0.50%
*   880+  358                          158.7484      158.1399             0.38%
    932   390      158.2342    29      158.7484      158.1399    60115    0.38%
*   980+  388                          158.6790      158.1399             0.34%
   1047   407        cutoff            158.6790      158.1528    68420    0.33%
   1163   376      158.2231    31      158.6790      158.1880    79179    0.31%
   1310   360      158.3581    21      158.6790      158.2331    90149    0.28%
   1490   372      158.3365    10      158.6790      158.2911   100000    0.24%
   1685   325      158.4168     7      158.6790      158.3861   111308    0.18%
   1878   221      158.4839    29      158.6790      158.4756   123070    0.13%
   2061   134        cutoff            158.6790      158.5550   135056    0.08%
Elapsed time = 16.07 sec. (15158.79 ticks, tree = 0.22 MB, solutions = 8)

GUB cover cuts applied:  27
Clique cuts applied:  17
Cover cuts applied:  242
Implied bound cuts applied:  48
Flow cuts applied:  4
Mixed integer rounding cuts applied:  468
Zero-half cuts applied:  8
Lift and project cuts applied:  2
Gomory fractional cuts applied:  15

Root node processing (before b&c):
  Real time             =    3.07 sec. (2310.01 ticks)
Sequential b&c:
  Real time             =   13.70 sec. (13514.71 ticks)
                          ------------
Total (root+branch&cut) =   16.77 sec. (15824.72 ticks)
